NAME : XML1500_2114_01
COMMENT : Generated as the XML100 dataset from the CVRPLIB
TYPE : CVRP
DIMENSION : 1501
EDGE_WEIGHT_TYPE : EUC_2D
CAPACITY : 14
NODE_COORD_SECTION
1    500  500 
2    549  62  
3    18   920 
4    46   530 
5    142  992 
6    382  70  
7    252  369 
8    408  64  
9    640  450 
10   365  776 
11   0    126 
12   442  93  
13   422  264 
14   5    878 
15   244  77  
16   341  275 
17   465  719 
18   472  615 
19   523  660 
20   418  415 
21   31   872 
22   698  140 
23   928  745 
24   537  860 
25   603  805 
26   258  133 
27   583  567 
28   740  959 
29   550  161 
30   650  248 
31   935  497 
32   640  957 
33   946  246 
34   664  942 
35   414  93  
36   108  575 
37   983  164 
38   312  719 
39   402  118 
40   722  474 
41   352  297 
42   57   349 
43   520  110 
44   790  937 
45   864  823 
46   258  231 
47   269  240 
48   717  516 
49   438  872 
50   819  829 
51   980  746 
52   356  393 
53   594  710 
54   21   31  
55   687  758 
56   728  301 
57   75   496 
58   167  908 
59   945  644 
60   369  219 
61   795  556 
62   541  331 
63   31   80  
64   76   725 
65   196  678 
66   80   875 
67   989  314 
68   602  957 
69   944  657 
70   138  593 
71   542  268 
72   743  29  
73   251  61  
74   650  624 
75   605  967 
76   661  224 
77   303  516 
78   651  705 
79   191  46  
80   584  386 
81   891  277 
82   881  349 
83   369  317 
84   576  387 
85   24   319 
86   562  223 
87   204  515 
88   699  457 
89   779  831 
90   876  126 
91   421  894 
92   38   604 
93   591  142 
94   924  202 
95   159  76  
96   90   650 
97   720  637 
98   131  916 
99   80   47  
100  674  377 
101  574  210 
102  912  205 
103  247  346 
104  620  442 
105  399  443 
106  238  117 
107  646  436 
108  347  963 
109  274  564 
110  522  815 
111  934  85  
112  744  333 
113  900  846 
114  120  1000
115  766  766 
116  642  996 
117  992  62  
118  256  551 
119  820  593 
120  848  283 
121  120  627 
122  109  209 
123  853  132 
124  835  349 
125  620  949 
126  275  542 
127  147  356 
128  142  543 
129  324  254 
130  272  738 
131  163  831 
132  19   63  
133  532  548 
134  836  285 
135  274  927 
136  918  620 
137  113  601 
138  936  903 
139  658  135 
140  304  726 
141  603  873 
142  50   172 
143  637  606 
144  3    734 
145  910  392 
146  767  572 
147  85   129 
148  896  48  
149  439  218 
150  21   230 
151  656  741 
152  244  796 
153  793  975 
154  907  960 
155  388  23  
156  193  979 
157  85   888 
158  517  402 
159  18   160 
160  117  468 
161  396  148 
162  653  707 
163  546  321 
164  4    792 
165  49   943 
166  259  673 
167  782  448 
168  733  592 
169  432  335 
170  176  495 
171  418  931 
172  563  791 
173  8    538 
174  846  325 
175  510  376 
176  816  711 
177  106  960 
178  35   491 
179  558  303 
180  87   309 
181  784  386 
182  855  266 
183  70   76  
184  974  366 
185  300  129 
186  309  134 
187  355  101 
188  634  684 
189  859  128 
190  14   36  
191  205  507 
192  701  594 
193  567  514 
194  613  481 
195  574  409 
196  961  526 
197  751  716 
198  211  177 
199  95   411 
200  181  563 
201  56   828 
202  761  909 
203  743  74  
204  838  949 
205  310  155 
206  324  993 
207  398  533 
208  978  879 
209  151  18  
210  912  525 
211  256  220 
212  536  503 
213  163  523 
214  482  797 
215  387  825 
216  583  471 
217  110  925 
218  485  839 
219  816  413 
220  583  736 
221  566  238 
222  983  526 
223  79   156 
224  297  644 
225  103  513 
226  449  592 
227  438  619 
228  393  59  
229  853  452 
230  21   416 
231  310  927 
232  738  996 
233  540  486 
234  881  636 
235  159  157 
236  589  873 
237  349  775 
238  35   880 
239  504  950 
240  833  860 
241  694  436 
242  105  307 
243  880  303 
244  587  804 
245  868  594 
246  932  987 
247  412  314 
248  74   813 
249  183  491 
250  745  523 
251  803  693 
252  482  378 
253  603  110 
254  166  258 
255  643  103 
256  355  948 
257  520  112 
258  539  656 
259  470  31  
260  221  495 
261  163  261 
262  743  656 
263  10   805 
264  812  935 
265  931  218 
266  475  612 
267  934  372 
268  541  706 
269  259  728 
270  488  322 
271  894  830 
272  575  964 
273  376  346 
274  280  787 
275  999  208 
276  987  908 
277  908  764 
278  567  471 
279  340  917 
280  22   491 
281  779  470 
282  437  626 
283  432  282 
284  511  17  
285  174  926 
286  324  950 
287  239  497 
288  857  281 
289  804  275 
290  724  920 
291  720  541 
292  975  273 
293  564  788 
294  748  231 
295  538  421 
296  740  519 
297  172  672 
298  537  276 
299  333  626 
300  872  266 
301  860  966 
302  460  358 
303  929  162 
304  503  548 
305  505  100 
306  348  116 
307  30   480 
308  592  598 
309  914  240 
310  53   469 
311  78   413 
312  442  955 
313  240  66  
314  294  940 
315  560  422 
316  779  460 
317  899  870 
318  586  824 
319  841  556 
320  999  584 
321  827  249 
322  108  233 
323  242  907 
324  275  675 
325  455  871 
326  561  623 
327  504  763 
328  139  76  
329  236  274 
330  932  535 
331  417  206 
332  919  224 
333  327  312 
334  543  202 
335  365  424 
336  429  854 
337  409  238 
338  728  512 
339  524  862 
340  796  912 
341  206  781 
342  408  278 
343  192  245 
344  972  994 
345  453  20  
346  432  900 
347  917  649 
348  736  982 
349  445  281 
350  550  712 
351  484  129 
352  340  344 
353  76   563 
354  263  426 
355  308  806 
356  926  361 
357  163  159 
358  138  660 
359  123  760 
360  8    550 
361  667  860 
362  645  612 
363  388  807 
364  363  225 
365  92   256 
366  902  390 
367  601  133 
368  718  718 
369  633  85  
370  373  912 
371  143  715 
372  702  221 
373  129  588 
374  45   854 
375  260  742 
376  695  590 
377  658  379 
378  819  333 
379  912  151 
380  107  132 
381  231  576 
382  413  324 
383  85   867 
384  844  776 
385  821  234 
386  275  475 
387  841  886 
388  878  130 
389  472  760 
390  435  463 
391  851  298 
392  941  829 
393  111  259 
394  734  652 
395  57   553 
396  771  45  
397  863  128 
398  338  508 
399  562  136 
400  50   370 
401  10   297 
402  636  85  
403  925  862 
404  547  947 
405  38   661 
406  210  587 
407  35   506 
408  638  805 
409  598  997 
410  376  921 
411  925  983 
412  799  120 
413  557  852 
414  968  423 
415  720  321 
416  682  703 
417  993  336 
418  135  979 
419  294  972 
420  736  530 
421  141  915 
422  514  194 
423  9    961 
424  344  950 
425  388  764 
426  794  369 
427  54   101 
428  944  164 
429  555  123 
430  828  132 
431  3    284 
432  22   297 
433  964  816 
434  761  865 
435  300  772 
436  459  536 
437  735  211 
438  496  832 
439  106  762 
440  600  251 
441  746  76  
442  747  41  
443  683  514 
444  977  732 
445  677  736 
446  769  410 
447  777  185 
448  689  72  
449  491  465 
450  575  724 
451  885  621 
452  226  576 
453  580  659 
454  721  518 
455  400  728 
456  163  901 
457  123  828 
458  934  927 
459  580  286 
460  678  183 
461  164  456 
462  426  578 
463  941  678 
464  627  339 
465  94   742 
466  795  66  
467  458  301 
468  840  977 
469  118  461 
470  697  403 
471  57   631 
472  755  524 
473  101  408 
474  120  507 
475  995  770 
476  368  349 
477  698  520 
478  295  889 
479  585  499 
480  521  972 
481  827  261 
482  367  505 
483  261  258 
484  854  623 
485  22   650 
486  71   363 
487  445  424 
488  182  230 
489  407  577 
490  171  715 
491  607  113 
492  458  399 
493  784  420 
494  14   93  
495  153  144 
496  126  684 
497  674  898 
498  594  151 
499  595  116 
500  406  329 
501  25   754 
502  328  675 
503  208  875 
504  406  365 
505  609  136 
506  758  524 
507  862  990 
508  32   798 
509  311  213 
510  975  867 
511  22   604 
512  31   15  
513  996  172 
514  102  978 
515  934  233 
516  984  957 
517  849  503 
518  610  603 
519  237  241 
520  499  915 
521  551  553 
522  548  956 
523  955  377 
524  785  2   
525  802  400 
526  55   614 
527  738  644 
528  301  563 
529  826  119 
530  949  827 
531  91   573 
532  886  807 
533  569  871 
534  817  564 
535  285  703 
536  669  549 
537  994  871 
538  500  219 
539  589  822 
540  887  399 
541  268  470 
542  105  629 
543  813  41  
544  768  564 
545  436  993 
546  948  387 
547  887  520 
548  700  285 
549  200  84  
550  92   667 
551  420  990 
552  820  57  
553  892  162 
554  398  593 
555  473  852 
556  37   587 
557  198  504 
558  355  79  
559  479  523 
560  29   323 
561  110  805 
562  869  565 
563  169  891 
564  435  861 
565  992  406 
566  800  56  
567  563  229 
568  882  683 
569  31   633 
570  577  428 
571  732  451 
572  103  923 
573  503  219 
574  789  204 
575  754  475 
576  650  9   
577  625  181 
578  839  290 
579  18   406 
580  266  657 
581  271  772 
582  44   315 
583  68   672 
584  995  537 
585  598  492 
586  803  632 
587  277  522 
588  310  290 
589  526  854 
590  343  998 
591  834  741 
592  525  480 
593  313  72  
594  678  493 
595  623  377 
596  417  574 
597  824  812 
598  368  538 
599  449  871 
600  346  370 
601  579  83  
602  354  1   
603  620  874 
604  861  820 
605  41   938 
606  518  454 
607  592  403 
608  191  324 
609  17   437 
610  540  212 
611  653  534 
612  961  507 
613  191  854 
614  437  241 
615  908  500 
616  968  667 
617  856  346 
618  808  40  
619  38   653 
620  533  860 
621  320  752 
622  975  9   
623  912  218 
624  344  929 
625  177  523 
626  685  850 
627  42   335 
628  810  881 
629  802  877 
630  461  547 
631  256  852 
632  812  661 
633  92   866 
634  4    982 
635  516  519 
636  273  761 
637  727  968 
638  480  44  
639  764  706 
640  787  344 
641  262  230 
642  59   545 
643  37   377 
644  151  133 
645  522  46  
646  732  264 
647  394  534 
648  557  3   
649  541  324 
650  8    764 
651  251  342 
652  120  676 
653  53   506 
654  427  567 
655  512  382 
656  945  529 
657  38   728 
658  337  121 
659  383  88  
660  422  345 
661  789  547 
662  723  602 
663  665  740 
664  102  254 
665  451  408 
666  540  974 
667  94   250 
668  255  433 
669  822  809 
670  971  114 
671  690  918 
672  787  213 
673  302  284 
674  735  697 
675  66   44  
676  647  584 
677  153  12  
678  761  160 
679  931  837 
680  750  267 
681  554  212 
682  418  617 
683  403  308 
684  502  430 
685  930  499 
686  431  815 
687  996  593 
688  430  707 
689  695  336 
690  256  554 
691  958  975 
692  916  829 
693  491  48  
694  8    574 
695  323  994 
696  527  909 
697  19   475 
698  845  108 
699  467  342 
700  647  309 
701  289  564 
702  159  491 
703  918  214 
704  298  240 
705  866  432 
706  604  432 
707  391  962 
708  627  452 
709  146  264 
710  390  853 
711  614  518 
712  5    553 
713  249  96  
714  746  673 
715  97   227 
716  555  962 
717  407  798 
718  806  809 
719  76   963 
720  323  840 
721  521  38  
722  903  103 
723  955  379 
724  122  441 
725  777  638 
726  272  731 
727  724  217 
728  372  818 
729  586  661 
730  689  116 
731  133  981 
732  752  730 
733  315  463 
734  284  67  
735  74   257 
736  10   357 
737  216  462 
738  128  349 
739  841  105 
740  423  117 
741  992  948 
742  816  871 
743  247  162 
744  105  752 
745  171  697 
746  153  234 
747  988  690 
748  419  353 
749  550  464 
750  408  380 
751  141  265 
752  998  596 
753  436  972 
754  985  922 
755  265  187 
756  867  521 
757  148  425 
758  152  395 
759  445  648 
760  168  519 
761  697  640 
762  872  492 
763  777  340 
764  839  809 
765  800  323 
766  886  920 
767  793  549 
768  867  498 
769  888  966 
770  620  248 
771  49   396 
772  975  296 
773  796  65  
774  171  687 
775  3    694 
776  903  456 
777  664  31  
778  786  545 
779  811  867 
780  294  757 
781  775  801 
782  897  498 
783  11   405 
784  172  996 
785  43   851 
786  60   940 
787  599  22  
788  618  975 
789  306  443 
790  425  400 
791  779  254 
792  408  347 
793  210  182 
794  398  827 
795  861  966 
796  279  318 
797  355  48  
798  857  703 
799  677  364 
800  273  423 
801  538  434 
802  714  251 
803  497  24  
804  400  320 
805  797  959 
806  796  814 
807  637  412 
808  876  694 
809  947  80  
810  823  688 
811  246  118 
812  557  568 
813  698  135 
814  254  387 
815  853  975 
816  155  265 
817  214  988 
818  630  903 
819  547  496 
820  725  273 
821  948  22  
822  222  964 
823  540  227 
824  280  8   
825  880  561 
826  247  96  
827  369  201 
828  709  306 
829  426  857 
830  326  361 
831  16   464 
832  618  798 
833  406  124 
834  576  801 
835  411  733 
836  24   589 
837  727  826 
838  218  274 
839  615  993 
840  931  332 
841  608  87  
842  291  151 
843  955  280 
844  29   151 
845  504  115 
846  424  680 
847  831  101 
848  345  881 
849  905  315 
850  194  74  
851  443  406 
852  512  914 
853  855  579 
854  555  58  
855  176  556 
856  551  204 
857  587  764 
858  640  919 
859  663  939 
860  761  162 
861  977  52  
862  791  679 
863  880  528 
864  903  511 
865  645  252 
866  313  273 
867  742  41  
868  253  258 
869  284  740 
870  738  272 
871  506  703 
872  194  28  
873  947  302 
874  86   760 
875  262  199 
876  932  551 
877  728  901 
878  888  890 
879  518  125 
880  466  114 
881  53   848 
882  888  72  
883  544  33  
884  566  695 
885  388  954 
886  662  174 
887  204  379 
888  220  732 
889  915  211 
890  311  96  
891  910  770 
892  956  737 
893  145  558 
894  454  261 
895  882  442 
896  629  607 
897  71   730 
898  800  381 
899  418  959 
900  385  367 
901  527  865 
902  179  384 
903  716  243 
904  132  43  
905  430  411 
906  307  834 
907  101  320 
908  557  371 
909  405  94  
910  145  692 
911  96   656 
912  898  377 
913  890  373 
914  660  585 
915  626  592 
916  305  128 
917  480  883 
918  75   834 
919  520  281 
920  601  800 
921  435  93  
922  248  761 
923  818  654 
924  970  931 
925  308  403 
926  306  213 
927  425  170 
928  412  725 
929  634  51  
930  102  190 
931  172  514 
932  406  830 
933  571  754 
934  834  490 
935  443  605 
936  986  624 
937  600  143 
938  277  801 
939  183  794 
940  636  245 
941  723  250 
942  232  12  
943  141  797 
944  332  99  
945  228  536 
946  149  917 
947  982  217 
948  675  703 
949  799  738 
950  357  393 
951  939  669 
952  495  363 
953  476  121 
954  625  738 
955  220  918 
956  219  693 
957  439  733 
958  803  335 
959  708  363 
960  8    775 
961  64   261 
962  391  427 
963  267  68  
964  969  260 
965  307  778 
966  601  996 
967  276  302 
968  342  512 
969  934  832 
970  924  638 
971  879  78  
972  615  148 
973  235  650 
974  153  59  
975  509  926 
976  742  194 
977  165  707 
978  635  742 
979  272  690 
980  997  600 
981  133  266 
982  504  667 
983  672  251 
984  715  850 
985  395  351 
986  598  185 
987  28   823 
988  999  645 
989  319  477 
990  513  379 
991  605  611 
992  622  780 
993  115  189 
994  747  551 
995  225  1000
996  431  165 
997  205  878 
998  756  901 
999  317  939 
1000 506  460 
1001 592  914 
1002 369  985 
1003 349  927 
1004 836  865 
1005 719  51  
1006 558  628 
1007 555  888 
1008 266  376 
1009 531  796 
1010 864  676 
1011 528  461 
1012 404  691 
1013 265  496 
1014 176  833 
1015 561  903 
1016 691  375 
1017 861  261 
1018 198  442 
1019 536  92  
1020 353  236 
1021 146  697 
1022 229  286 
1023 187  469 
1024 251  719 
1025 955  426 
1026 733  233 
1027 501  750 
1028 699  585 
1029 505  491 
1030 247  870 
1031 491  327 
1032 586  70  
1033 360  481 
1034 573  625 
1035 584  900 
1036 806  604 
1037 219  807 
1038 74   389 
1039 411  74  
1040 826  24  
1041 866  963 
1042 564  289 
1043 904  208 
1044 765  13  
1045 60   755 
1046 677  431 
1047 935  955 
1048 868  785 
1049 311  602 
1050 323  347 
1051 516  333 
1052 432  519 
1053 991  217 
1054 979  917 
1055 681  177 
1056 117  629 
1057 836  953 
1058 137  49  
1059 629  740 
1060 403  842 
1061 237  401 
1062 690  755 
1063 279  663 
1064 753  811 
1065 102  212 
1066 277  967 
1067 49   731 
1068 181  999 
1069 665  554 
1070 949  987 
1071 119  795 
1072 938  569 
1073 552  942 
1074 312  552 
1075 252  421 
1076 35   652 
1077 105  259 
1078 46   847 
1079 221  699 
1080 149  36  
1081 98   857 
1082 559  20  
1083 7    181 
1084 427  767 
1085 237  414 
1086 992  432 
1087 173  478 
1088 122  841 
1089 287  91  
1090 714  573 
1091 381  772 
1092 309  524 
1093 982  998 
1094 762  729 
1095 745  151 
1096 547  432 
1097 818  666 
1098 343  373 
1099 50   565 
1100 762  212 
1101 379  596 
1102 667  325 
1103 551  559 
1104 822  119 
1105 343  795 
1106 12   21  
1107 208  570 
1108 686  194 
1109 628  927 
1110 649  721 
1111 338  945 
1112 45   54  
1113 651  767 
1114 65   935 
1115 764  415 
1116 211  989 
1117 804  600 
1118 469  201 
1119 329  981 
1120 941  834 
1121 612  695 
1122 298  90  
1123 727  124 
1124 957  549 
1125 214  96  
1126 865  179 
1127 368  950 
1128 109  726 
1129 337  733 
1130 17   463 
1131 920  788 
1132 276  723 
1133 360  945 
1134 204  963 
1135 821  782 
1136 681  399 
1137 661  155 
1138 693  224 
1139 100  762 
1140 539  166 
1141 150  848 
1142 591  361 
1143 392  646 
1144 188  996 
1145 124  337 
1146 409  815 
1147 283  739 
1148 26   668 
1149 932  739 
1150 686  943 
1151 766  69  
1152 918  283 
1153 707  657 
1154 451  817 
1155 612  505 
1156 290  225 
1157 526  847 
1158 105  445 
1159 615  546 
1160 15   816 
1161 173  170 
1162 838  969 
1163 704  480 
1164 515  693 
1165 611  23  
1166 581  675 
1167 976  530 
1168 658  858 
1169 40   27  
1170 182  785 
1171 178  406 
1172 712  456 
1173 81   473 
1174 402  379 
1175 78   584 
1176 624  757 
1177 549  434 
1178 967  193 
1179 136  36  
1180 462  286 
1181 306  712 
1182 473  560 
1183 138  347 
1184 203  556 
1185 766  324 
1186 702  654 
1187 133  762 
1188 651  459 
1189 427  305 
1190 836  998 
1191 430  841 
1192 335  78  
1193 290  830 
1194 385  424 
1195 709  176 
1196 607  128 
1197 581  930 
1198 121  271 
1199 414  344 
1200 748  369 
1201 253  655 
1202 159  648 
1203 920  889 
1204 906  991 
1205 491  712 
1206 587  42  
1207 531  147 
1208 327  460 
1209 256  436 
1210 485  116 
1211 273  754 
1212 191  572 
1213 599  775 
1214 57   492 
1215 558  365 
1216 909  299 
1217 588  658 
1218 281  995 
1219 470  931 
1220 881  93  
1221 274  992 
1222 794  619 
1223 40   416 
1224 997  798 
1225 14   772 
1226 302  12  
1227 892  488 
1228 765  38  
1229 175  847 
1230 943  310 
1231 808  265 
1232 784  811 
1233 322  637 
1234 620  968 
1235 203  945 
1236 747  26  
1237 41   129 
1238 947  954 
1239 717  83  
1240 511  652 
1241 845  906 
1242 563  290 
1243 215  101 
1244 961  745 
1245 86   136 
1246 490  979 
1247 674  916 
1248 990  664 
1249 570  41  
1250 739  902 
1251 177  375 
1252 644  893 
1253 137  833 
1254 698  986 
1255 92   947 
1256 957  571 
1257 919  990 
1258 532  809 
1259 201  72  
1260 238  368 
1261 225  20  
1262 106  328 
1263 83   839 
1264 652  93  
1265 817  834 
1266 771  458 
1267 404  781 
1268 335  830 
1269 921  747 
1270 364  564 
1271 276  866 
1272 386  768 
1273 821  925 
1274 238  875 
1275 319  305 
1276 768  811 
1277 315  456 
1278 593  141 
1279 168  931 
1280 521  152 
1281 743  610 
1282 513  822 
1283 171  533 
1284 0    831 
1285 526  352 
1286 397  467 
1287 314  203 
1288 4    392 
1289 232  399 
1290 516  423 
1291 410  176 
1292 797  442 
1293 255  275 
1294 5    392 
1295 718  679 
1296 993  389 
1297 720  868 
1298 115  874 
1299 805  683 
1300 914  855 
1301 864  854 
1302 996  664 
1303 71   171 
1304 719  206 
1305 440  562 
1306 282  619 
1307 175  264 
1308 633  59  
1309 434  753 
1310 991  670 
1311 797  167 
1312 557  823 
1313 65   132 
1314 578  388 
1315 295  939 
1316 448  952 
1317 130  908 
1318 22   26  
1319 659  89  
1320 132  688 
1321 478  13  
1322 640  749 
1323 280  443 
1324 576  176 
1325 854  529 
1326 949  272 
1327 552  456 
1328 454  595 
1329 1000 997 
1330 572  736 
1331 75   949 
1332 490  108 
1333 136  928 
1334 701  557 
1335 318  447 
1336 522  1000
1337 519  171 
1338 813  389 
1339 934  270 
1340 78   694 
1341 404  715 
1342 779  741 
1343 390  142 
1344 842  946 
1345 227  264 
1346 600  775 
1347 627  91  
1348 30   918 
1349 103  234 
1350 892  245 
1351 871  222 
1352 261  33  
1353 251  514 
1354 834  569 
1355 129  637 
1356 597  513 
1357 557  934 
1358 406  801 
1359 435  41  
1360 935  593 
1361 948  303 
1362 828  875 
1363 200  409 
1364 958  990 
1365 325  31  
1366 817  493 
1367 620  473 
1368 48   805 
1369 179  358 
1370 386  391 
1371 794  631 
1372 707  626 
1373 302  577 
1374 348  544 
1375 64   785 
1376 555  205 
1377 504  648 
1378 312  69  
1379 928  566 
1380 329  508 
1381 879  157 
1382 142  947 
1383 79   253 
1384 256  703 
1385 542  14  
1386 244  320 
1387 20   841 
1388 835  910 
1389 876  124 
1390 116  256 
1391 550  633 
1392 112  816 
1393 312  841 
1394 452  735 
1395 124  152 
1396 499  29  
1397 639  189 
1398 3    91  
1399 276  286 
1400 497  105 
1401 744  354 
1402 469  6   
1403 650  612 
1404 949  759 
1405 324  936 
1406 630  225 
1407 337  646 
1408 921  288 
1409 817  725 
1410 769  685 
1411 570  210 
1412 355  142 
1413 257  802 
1414 457  827 
1415 260  133 
1416 192  264 
1417 392  209 
1418 941  616 
1419 449  679 
1420 292  207 
1421 450  415 
1422 452  833 
1423 721  878 
1424 194  983 
1425 400  5   
1426 677  579 
1427 773  287 
1428 628  686 
1429 551  848 
1430 350  678 
1431 645  595 
1432 360  871 
1433 993  555 
1434 701  118 
1435 389  526 
1436 393  676 
1437 168  557 
1438 180  159 
1439 104  923 
1440 756  849 
1441 767  858 
1442 651  9   
1443 814  152 
1444 111  818 
1445 278  815 
1446 849  932 
1447 897  680 
1448 58   30  
1449 961  292 
1450 801  748 
1451 764  43  
1452 387  205 
1453 483  667 
1454 152  976 
1455 839  222 
1456 719  794 
1457 558  697 
1458 668  834 
1459 453  680 
1460 288  958 
1461 658  640 
1462 644  741 
1463 961  305 
1464 194  541 
1465 275  615 
1466 958  528 
1467 285  579 
1468 230  729 
1469 66   886 
1470 670  1000
1471 826  610 
1472 73   781 
1473 333  448 
1474 177  609 
1475 887  625 
1476 892  411 
1477 180  620 
1478 174  460 
1479 179  246 
1480 279  333 
1481 532  513 
1482 560  352 
1483 276  364 
1484 595  718 
1485 721  714 
1486 869  814 
1487 364  821 
1488 544  788 
1489 103  557 
1490 469  614 
1491 874  928 
1492 120  582 
1493 525  222 
1494 520  781 
1495 304  668 
1496 380  169 
1497 98   154 
1498 346  521 
1499 593  398 
1500 944  592 
1501 999  262 
DEMAND_SECTION
1    0   
2    1   
3    1   
4    1   
5    1   
6    1   
7    1   
8    1   
9    1   
10   1   
11   1   
12   1   
13   1   
14   1   
15   1   
16   1   
17   1   
18   1   
19   1   
20   1   
21   1   
22   1   
23   1   
24   1   
25   1   
26   1   
27   1   
28   1   
29   1   
30   1   
31   1   
32   1   
33   1   
34   1   
35   1   
36   1   
37   1   
38   1   
39   1   
40   1   
41   1   
42   1   
43   1   
44   1   
45   1   
46   1   
47   1   
48   1   
49   1   
50   1   
51   1   
52   1   
53   1   
54   1   
55   1   
56   1   
57   1   
58   1   
59   1   
60   1   
61   1   
62   1   
63   1   
64   1   
65   1   
66   1   
67   1   
68   1   
69   1   
70   1   
71   1   
72   1   
73   1   
74   1   
75   1   
76   1   
77   1   
78   1   
79   1   
80   1   
81   1   
82   1   
83   1   
84   1   
85   1   
86   1   
87   1   
88   1   
89   1   
90   1   
91   1   
92   1   
93   1   
94   1   
95   1   
96   1   
97   1   
98   1   
99   1   
100  1   
101  1   
102  1   
103  1   
104  1   
105  1   
106  1   
107  1   
108  1   
109  1   
110  1   
111  1   
112  1   
113  1   
114  1   
115  1   
116  1   
117  1   
118  1   
119  1   
120  1   
121  1   
122  1   
123  1   
124  1   
125  1   
126  1   
127  1   
128  1   
129  1   
130  1   
131  1   
132  1   
133  1   
134  1   
135  1   
136  1   
137  1   
138  1   
139  1   
140  1   
141  1   
142  1   
143  1   
144  1   
145  1   
146  1   
147  1   
148  1   
149  1   
150  1   
151  1   
152  1   
153  1   
154  1   
155  1   
156  1   
157  1   
158  1   
159  1   
160  1   
161  1   
162  1   
163  1   
164  1   
165  1   
166  1   
167  1   
168  1   
169  1   
170  1   
171  1   
172  1   
173  1   
174  1   
175  1   
176  1   
177  1   
178  1   
179  1   
180  1   
181  1   
182  1   
183  1   
184  1   
185  1   
186  1   
187  1   
188  1   
189  1   
190  1   
191  1   
192  1   
193  1   
194  1   
195  1   
196  1   
197  1   
198  1   
199  1   
200  1   
201  1   
202  1   
203  1   
204  1   
205  1   
206  1   
207  1   
208  1   
209  1   
210  1   
211  1   
212  1   
213  1   
214  1   
215  1   
216  1   
217  1   
218  1   
219  1   
220  1   
221  1   
222  1   
223  1   
224  1   
225  1   
226  1   
227  1   
228  1   
229  1   
230  1   
231  1   
232  1   
233  1   
234  1   
235  1   
236  1   
237  1   
238  1   
239  1   
240  1   
241  1   
242  1   
243  1   
244  1   
245  1   
246  1   
247  1   
248  1   
249  1   
250  1   
251  1   
252  1   
253  1   
254  1   
255  1   
256  1   
257  1   
258  1   
259  1   
260  1   
261  1   
262  1   
263  1   
264  1   
265  1   
266  1   
267  1   
268  1   
269  1   
270  1   
271  1   
272  1   
273  1   
274  1   
275  1   
276  1   
277  1   
278  1   
279  1   
280  1   
281  1   
282  1   
283  1   
284  1   
285  1   
286  1   
287  1   
288  1   
289  1   
290  1   
291  1   
292  1   
293  1   
294  1   
295  1   
296  1   
297  1   
298  1   
299  1   
300  1   
301  1   
302  1   
303  1   
304  1   
305  1   
306  1   
307  1   
308  1   
309  1   
310  1   
311  1   
312  1   
313  1   
314  1   
315  1   
316  1   
317  1   
318  1   
319  1   
320  1   
321  1   
322  1   
323  1   
324  1   
325  1   
326  1   
327  1   
328  1   
329  1   
330  1   
331  1   
332  1   
333  1   
334  1   
335  1   
336  1   
337  1   
338  1   
339  1   
340  1   
341  1   
342  1   
343  1   
344  1   
345  1   
346  1   
347  1   
348  1   
349  1   
350  1   
351  1   
352  1   
353  1   
354  1   
355  1   
356  1   
357  1   
358  1   
359  1   
360  1   
361  1   
362  1   
363  1   
364  1   
365  1   
366  1   
367  1   
368  1   
369  1   
370  1   
371  1   
372  1   
373  1   
374  1   
375  1   
376  1   
377  1   
378  1   
379  1   
380  1   
381  1   
382  1   
383  1   
384  1   
385  1   
386  1   
387  1   
388  1   
389  1   
390  1   
391  1   
392  1   
393  1   
394  1   
395  1   
396  1   
397  1   
398  1   
399  1   
400  1   
401  1   
402  1   
403  1   
404  1   
405  1   
406  1   
407  1   
408  1   
409  1   
410  1   
411  1   
412  1   
413  1   
414  1   
415  1   
416  1   
417  1   
418  1   
419  1   
420  1   
421  1   
422  1   
423  1   
424  1   
425  1   
426  1   
427  1   
428  1   
429  1   
430  1   
431  1   
432  1   
433  1   
434  1   
435  1   
436  1   
437  1   
438  1   
439  1   
440  1   
441  1   
442  1   
443  1   
444  1   
445  1   
446  1   
447  1   
448  1   
449  1   
450  1   
451  1   
452  1   
453  1   
454  1   
455  1   
456  1   
457  1   
458  1   
459  1   
460  1   
461  1   
462  1   
463  1   
464  1   
465  1   
466  1   
467  1   
468  1   
469  1   
470  1   
471  1   
472  1   
473  1   
474  1   
475  1   
476  1   
477  1   
478  1   
479  1   
480  1   
481  1   
482  1   
483  1   
484  1   
485  1   
486  1   
487  1   
488  1   
489  1   
490  1   
491  1   
492  1   
493  1   
494  1   
495  1   
496  1   
497  1   
498  1   
499  1   
500  1   
501  1   
502  1   
503  1   
504  1   
505  1   
506  1   
507  1   
508  1   
509  1   
510  1   
511  1   
512  1   
513  1   
514  1   
515  1   
516  1   
517  1   
518  1   
519  1   
520  1   
521  1   
522  1   
523  1   
524  1   
525  1   
526  1   
527  1   
528  1   
529  1   
530  1   
531  1   
532  1   
533  1   
534  1   
535  1   
536  1   
537  1   
538  1   
539  1   
540  1   
541  1   
542  1   
543  1   
544  1   
545  1   
546  1   
547  1   
548  1   
549  1   
550  1   
551  1   
552  1   
553  1   
554  1   
555  1   
556  1   
557  1   
558  1   
559  1   
560  1   
561  1   
562  1   
563  1   
564  1   
565  1   
566  1   
567  1   
568  1   
569  1   
570  1   
571  1   
572  1   
573  1   
574  1   
575  1   
576  1   
577  1   
578  1   
579  1   
580  1   
581  1   
582  1   
583  1   
584  1   
585  1   
586  1   
587  1   
588  1   
589  1   
590  1   
591  1   
592  1   
593  1   
594  1   
595  1   
596  1   
597  1   
598  1   
599  1   
600  1   
601  1   
602  1   
603  1   
604  1   
605  1   
606  1   
607  1   
608  1   
609  1   
610  1   
611  1   
612  1   
613  1   
614  1   
615  1   
616  1   
617  1   
618  1   
619  1   
620  1   
621  1   
622  1   
623  1   
624  1   
625  1   
626  1   
627  1   
628  1   
629  1   
630  1   
631  1   
632  1   
633  1   
634  1   
635  1   
636  1   
637  1   
638  1   
639  1   
640  1   
641  1   
642  1   
643  1   
644  1   
645  1   
646  1   
647  1   
648  1   
649  1   
650  1   
651  1   
652  1   
653  1   
654  1   
655  1   
656  1   
657  1   
658  1   
659  1   
660  1   
661  1   
662  1   
663  1   
664  1   
665  1   
666  1   
667  1   
668  1   
669  1   
670  1   
671  1   
672  1   
673  1   
674  1   
675  1   
676  1   
677  1   
678  1   
679  1   
680  1   
681  1   
682  1   
683  1   
684  1   
685  1   
686  1   
687  1   
688  1   
689  1   
690  1   
691  1   
692  1   
693  1   
694  1   
695  1   
696  1   
697  1   
698  1   
699  1   
700  1   
701  1   
702  1   
703  1   
704  1   
705  1   
706  1   
707  1   
708  1   
709  1   
710  1   
711  1   
712  1   
713  1   
714  1   
715  1   
716  1   
717  1   
718  1   
719  1   
720  1   
721  1   
722  1   
723  1   
724  1   
725  1   
726  1   
727  1   
728  1   
729  1   
730  1   
731  1   
732  1   
733  1   
734  1   
735  1   
736  1   
737  1   
738  1   
739  1   
740  1   
741  1   
742  1   
743  1   
744  1   
745  1   
746  1   
747  1   
748  1   
749  1   
750  1   
751  1   
752  1   
753  1   
754  1   
755  1   
756  1   
757  1   
758  1   
759  1   
760  1   
761  1   
762  1   
763  1   
764  1   
765  1   
766  1   
767  1   
768  1   
769  1   
770  1   
771  1   
772  1   
773  1   
774  1   
775  1   
776  1   
777  1   
778  1   
779  1   
780  1   
781  1   
782  1   
783  1   
784  1   
785  1   
786  1   
787  1   
788  1   
789  1   
790  1   
791  1   
792  1   
793  1   
794  1   
795  1   
796  1   
797  1   
798  1   
799  1   
800  1   
801  1   
802  1   
803  1   
804  1   
805  1   
806  1   
807  1   
808  1   
809  1   
810  1   
811  1   
812  1   
813  1   
814  1   
815  1   
816  1   
817  1   
818  1   
819  1   
820  1   
821  1   
822  1   
823  1   
824  1   
825  1   
826  1   
827  1   
828  1   
829  1   
830  1   
831  1   
832  1   
833  1   
834  1   
835  1   
836  1   
837  1   
838  1   
839  1   
840  1   
841  1   
842  1   
843  1   
844  1   
845  1   
846  1   
847  1   
848  1   
849  1   
850  1   
851  1   
852  1   
853  1   
854  1   
855  1   
856  1   
857  1   
858  1   
859  1   
860  1   
861  1   
862  1   
863  1   
864  1   
865  1   
866  1   
867  1   
868  1   
869  1   
870  1   
871  1   
872  1   
873  1   
874  1   
875  1   
876  1   
877  1   
878  1   
879  1   
880  1   
881  1   
882  1   
883  1   
884  1   
885  1   
886  1   
887  1   
888  1   
889  1   
890  1   
891  1   
892  1   
893  1   
894  1   
895  1   
896  1   
897  1   
898  1   
899  1   
900  1   
901  1   
902  1   
903  1   
904  1   
905  1   
906  1   
907  1   
908  1   
909  1   
910  1   
911  1   
912  1   
913  1   
914  1   
915  1   
916  1   
917  1   
918  1   
919  1   
920  1   
921  1   
922  1   
923  1   
924  1   
925  1   
926  1   
927  1   
928  1   
929  1   
930  1   
931  1   
932  1   
933  1   
934  1   
935  1   
936  1   
937  1   
938  1   
939  1   
940  1   
941  1   
942  1   
943  1   
944  1   
945  1   
946  1   
947  1   
948  1   
949  1   
950  1   
951  1   
952  1   
953  1   
954  1   
955  1   
956  1   
957  1   
958  1   
959  1   
960  1   
961  1   
962  1   
963  1   
964  1   
965  1   
966  1   
967  1   
968  1   
969  1   
970  1   
971  1   
972  1   
973  1   
974  1   
975  1   
976  1   
977  1   
978  1   
979  1   
980  1   
981  1   
982  1   
983  1   
984  1   
985  1   
986  1   
987  1   
988  1   
989  1   
990  1   
991  1   
992  1   
993  1   
994  1   
995  1   
996  1   
997  1   
998  1   
999  1   
1000 1   
1001 1   
1002 1   
1003 1   
1004 1   
1005 1   
1006 1   
1007 1   
1008 1   
1009 1   
1010 1   
1011 1   
1012 1   
1013 1   
1014 1   
1015 1   
1016 1   
1017 1   
1018 1   
1019 1   
1020 1   
1021 1   
1022 1   
1023 1   
1024 1   
1025 1   
1026 1   
1027 1   
1028 1   
1029 1   
1030 1   
1031 1   
1032 1   
1033 1   
1034 1   
1035 1   
1036 1   
1037 1   
1038 1   
1039 1   
1040 1   
1041 1   
1042 1   
1043 1   
1044 1   
1045 1   
1046 1   
1047 1   
1048 1   
1049 1   
1050 1   
1051 1   
1052 1   
1053 1   
1054 1   
1055 1   
1056 1   
1057 1   
1058 1   
1059 1   
1060 1   
1061 1   
1062 1   
1063 1   
1064 1   
1065 1   
1066 1   
1067 1   
1068 1   
1069 1   
1070 1   
1071 1   
1072 1   
1073 1   
1074 1   
1075 1   
1076 1   
1077 1   
1078 1   
1079 1   
1080 1   
1081 1   
1082 1   
1083 1   
1084 1   
1085 1   
1086 1   
1087 1   
1088 1   
1089 1   
1090 1   
1091 1   
1092 1   
1093 1   
1094 1   
1095 1   
1096 1   
1097 1   
1098 1   
1099 1   
1100 1   
1101 1   
1102 1   
1103 1   
1104 1   
1105 1   
1106 1   
1107 1   
1108 1   
1109 1   
1110 1   
1111 1   
1112 1   
1113 1   
1114 1   
1115 1   
1116 1   
1117 1   
1118 1   
1119 1   
1120 1   
1121 1   
1122 1   
1123 1   
1124 1   
1125 1   
1126 1   
1127 1   
1128 1   
1129 1   
1130 1   
1131 1   
1132 1   
1133 1   
1134 1   
1135 1   
1136 1   
1137 1   
1138 1   
1139 1   
1140 1   
1141 1   
1142 1   
1143 1   
1144 1   
1145 1   
1146 1   
1147 1   
1148 1   
1149 1   
1150 1   
1151 1   
1152 1   
1153 1   
1154 1   
1155 1   
1156 1   
1157 1   
1158 1   
1159 1   
1160 1   
1161 1   
1162 1   
1163 1   
1164 1   
1165 1   
1166 1   
1167 1   
1168 1   
1169 1   
1170 1   
1171 1   
1172 1   
1173 1   
1174 1   
1175 1   
1176 1   
1177 1   
1178 1   
1179 1   
1180 1   
1181 1   
1182 1   
1183 1   
1184 1   
1185 1   
1186 1   
1187 1   
1188 1   
1189 1   
1190 1   
1191 1   
1192 1   
1193 1   
1194 1   
1195 1   
1196 1   
1197 1   
1198 1   
1199 1   
1200 1   
1201 1   
1202 1   
1203 1   
1204 1   
1205 1   
1206 1   
1207 1   
1208 1   
1209 1   
1210 1   
1211 1   
1212 1   
1213 1   
1214 1   
1215 1   
1216 1   
1217 1   
1218 1   
1219 1   
1220 1   
1221 1   
1222 1   
1223 1   
1224 1   
1225 1   
1226 1   
1227 1   
1228 1   
1229 1   
1230 1   
1231 1   
1232 1   
1233 1   
1234 1   
1235 1   
1236 1   
1237 1   
1238 1   
1239 1   
1240 1   
1241 1   
1242 1   
1243 1   
1244 1   
1245 1   
1246 1   
1247 1   
1248 1   
1249 1   
1250 1   
1251 1   
1252 1   
1253 1   
1254 1   
1255 1   
1256 1   
1257 1   
1258 1   
1259 1   
1260 1   
1261 1   
1262 1   
1263 1   
1264 1   
1265 1   
1266 1   
1267 1   
1268 1   
1269 1   
1270 1   
1271 1   
1272 1   
1273 1   
1274 1   
1275 1   
1276 1   
1277 1   
1278 1   
1279 1   
1280 1   
1281 1   
1282 1   
1283 1   
1284 1   
1285 1   
1286 1   
1287 1   
1288 1   
1289 1   
1290 1   
1291 1   
1292 1   
1293 1   
1294 1   
1295 1   
1296 1   
1297 1   
1298 1   
1299 1   
1300 1   
1301 1   
1302 1   
1303 1   
1304 1   
1305 1   
1306 1   
1307 1   
1308 1   
1309 1   
1310 1   
1311 1   
1312 1   
1313 1   
1314 1   
1315 1   
1316 1   
1317 1   
1318 1   
1319 1   
1320 1   
1321 1   
1322 1   
1323 1   
1324 1   
1325 1   
1326 1   
1327 1   
1328 1   
1329 1   
1330 1   
1331 1   
1332 1   
1333 1   
1334 1   
1335 1   
1336 1   
1337 1   
1338 1   
1339 1   
1340 1   
1341 1   
1342 1   
1343 1   
1344 1   
1345 1   
1346 1   
1347 1   
1348 1   
1349 1   
1350 1   
1351 1   
1352 1   
1353 1   
1354 1   
1355 1   
1356 1   
1357 1   
1358 1   
1359 1   
1360 1   
1361 1   
1362 1   
1363 1   
1364 1   
1365 1   
1366 1   
1367 1   
1368 1   
1369 1   
1370 1   
1371 1   
1372 1   
1373 1   
1374 1   
1375 1   
1376 1   
1377 1   
1378 1   
1379 1   
1380 1   
1381 1   
1382 1   
1383 1   
1384 1   
1385 1   
1386 1   
1387 1   
1388 1   
1389 1   
1390 1   
1391 1   
1392 1   
1393 1   
1394 1   
1395 1   
1396 1   
1397 1   
1398 1   
1399 1   
1400 1   
1401 1   
1402 1   
1403 1   
1404 1   
1405 1   
1406 1   
1407 1   
1408 1   
1409 1   
1410 1   
1411 1   
1412 1   
1413 1   
1414 1   
1415 1   
1416 1   
1417 1   
1418 1   
1419 1   
1420 1   
1421 1   
1422 1   
1423 1   
1424 1   
1425 1   
1426 1   
1427 1   
1428 1   
1429 1   
1430 1   
1431 1   
1432 1   
1433 1   
1434 1   
1435 1   
1436 1   
1437 1   
1438 1   
1439 1   
1440 1   
1441 1   
1442 1   
1443 1   
1444 1   
1445 1   
1446 1   
1447 1   
1448 1   
1449 1   
1450 1   
1451 1   
1452 1   
1453 1   
1454 1   
1455 1   
1456 1   
1457 1   
1458 1   
1459 1   
1460 1   
1461 1   
1462 1   
1463 1   
1464 1   
1465 1   
1466 1   
1467 1   
1468 1   
1469 1   
1470 1   
1471 1   
1472 1   
1473 1   
1474 1   
1475 1   
1476 1   
1477 1   
1478 1   
1479 1   
1480 1   
1481 1   
1482 1   
1483 1   
1484 1   
1485 1   
1486 1   
1487 1   
1488 1   
1489 1   
1490 1   
1491 1   
1492 1   
1493 1   
1494 1   
1495 1   
1496 1   
1497 1   
1498 1   
1499 1   
1500 1   
1501 1   
DEPOT_SECTION
1
-1
EOF
